 $SYSTEM MWORDS=125 $END
 $CONTRL RUNTYP=MAKEFP ISPHER=1 $END
! $BASIS GBASIS=N21 NGAUSS=3 $END
 $BASIS GBASIS=CCD $END
 $STONE

ATOMS
 $END
 $DATA

C1
O      8.0      1.0533819556   -0.0476085669   -0.0662000188 
H      1.0      2.0212690025   -0.0670548912   -0.0240387828 
H      1.0      0.7745309795   -0.4362894880    0.7764922972 
 $END


